;; Preprocessed for Astral solver
(set-info :status sat)
;; variables
(declare-const x0 Loc)
(declare-const x1 Loc)
(declare-const x2 Loc)
(declare-const x3 Loc)
(declare-const x4 Loc)
(declare-const x5 Loc)
(declare-const x6 Loc)
(declare-const x7 Loc)
(declare-const x8 Loc)
(declare-const x9 Loc)
(declare-const x10 Loc)
(declare-const x11 Loc)
(declare-const x12 Loc)
(declare-const x13 Loc)
(declare-const x14 Loc)
(declare-const x15 Loc)
(declare-const x16 Loc)
(declare-const x17 Loc)
(declare-const x18 Loc)

(assert 
		(sep 
			(= nil nil)
			(distinct x6 x13)
			(distinct x6 x12)
			(distinct x4 x10)
			(distinct x1 x8)
			(distinct x1 x4)
			(distinct x1 x7)
			(distinct x1 x14)
			(distinct x3 x5)
			(distinct x7 x11)
			(distinct x7 x10)
			(distinct x7 x12)
			(distinct x2 x3)
		(sep 
			(ls x13 x4 )
			(ls x4 x8 )
			(ls x9 x10 )
			(ls x9 x13 )
			(ls x7 x1 )
			(ls x3 x4 )
			(ls x11 x10 )
			(ls x6 x4 )
		)

		)

)

(check-sat)
